(declare-fun temp1082_2 () (_ BitVec 64))
(declare-fun temp1082_1 () (_ BitVec 64))
(declare-fun temp1082_4 () (_ BitVec 64))
(declare-fun temp1082_3 () (_ BitVec 64))
(declare-fun temp1082_5 () (_ BitVec 64))
(declare-fun var984667 () (_ BitVec 64))
(declare-fun temp1082_6 () (_ BitVec 64))
(declare-fun temp1082_7 () (_ BitVec 64))
(declare-fun temp1082_8 () (_ BitVec 64))
(declare-fun ARGNAME_input_NAMEEND_DIMSIZE
             ()
             (Array (_ BitVec 64) (_ BitVec 64)))
(declare-fun temp1082_9 () (_ BitVec 64))
(declare-fun temp1082_10 () (_ BitVec 64))
(declare-fun temp1082_11 () (_ BitVec 64))
(declare-fun temp1082_12 () (_ BitVec 64))
(declare-fun temp1082_13 () (_ BitVec 64))
(declare-fun temp1082_14 () (_ BitVec 64))
(declare-fun temp1082_15 () (_ BitVec 64))
(declare-fun temp1082_16 () (_ BitVec 64))
(declare-fun temp1082_17 () (_ BitVec 64))
(declare-fun temp1082_18 () (_ BitVec 64))
(declare-fun temp1082_19 () (_ BitVec 64))
(declare-fun temp1082_20 () (_ BitVec 64))
(declare-fun temp1082_21 () (_ BitVec 64))
(declare-fun temp1082_22 () (_ BitVec 64))
(declare-fun temp1082_23 () (_ BitVec 64))
(declare-fun temp1082_25 () (_ BitVec 64))
(declare-fun temp1082_24 () (_ BitVec 64))
(declare-fun ARGNAME_input_NAMEEND_DIM () (_ BitVec 64))
(declare-fun temp1082_26 () (_ BitVec 64))
(declare-fun temp1082_27 () (_ BitVec 64))
(declare-fun var984666 () (_ BitVec 64))
(declare-fun temp1082_28 () (_ BitVec 64))
(declare-fun var984671 () (_ BitVec 64))
(declare-fun temp1082_30 () (_ BitVec 64))
(declare-fun temp1082_29 () (_ BitVec 64))
(declare-fun temp1082_31 () (_ BitVec 64))
(declare-fun temp1082_32 () (_ BitVec 64))
(declare-fun var984670 () (_ BitVec 64))
(declare-fun temp1082_33 () (_ BitVec 64))
(declare-fun var984672 () (_ BitVec 64))
(declare-fun temp1082_34 () (_ BitVec 64))
(declare-fun ARGNAME_B_NAMEEND_DIM () (_ BitVec 64))
(declare-fun var1117880 () (_ BitVec 64))
(declare-fun temp1082_35 () (_ BitVec 64))
(declare-fun temp1082_36 () (_ BitVec 64))
(declare-fun temp1082_37 () (_ BitVec 64))
(declare-fun var921814 () (_ BitVec 64))
(declare-fun var921834 () (_ BitVec 64))
(declare-fun temp1082_38 () (_ BitVec 64))
(declare-fun temp1082_39 () (_ BitVec 64))
(declare-fun var921835 () (_ BitVec 64))
(declare-fun temp1082_41 () (_ BitVec 64))
(declare-fun temp1082_40 () (_ BitVec 64))
(declare-fun temp1082_42 () (_ BitVec 64))
(declare-fun temp1082_43 () (_ BitVec 64))
(declare-fun var921836 () (_ BitVec 64))
(declare-fun temp1082_44 () (_ BitVec 64))
(declare-fun temp1082_45 () (_ BitVec 64))
(declare-fun ARGNAME_B_NAMEEND_DIMSIZE () (Array (_ BitVec 64) (_ BitVec 64)))
(declare-fun temp1082_46 () (_ BitVec 64))
(declare-fun temp1082_47 () (_ BitVec 64))
(declare-fun temp1082_48 () (_ BitVec 64))
(declare-fun temp1082_49 () (_ BitVec 64))
(declare-fun temp1082_50 () (_ BitVec 64))
(declare-fun temp1082_51 () (_ BitVec 64))
(declare-fun temp1082_52 () (_ BitVec 64))
(declare-fun temp1082_53 () (_ BitVec 64))
(declare-fun temp1082_54 () (_ BitVec 64))
(declare-fun temp1082_55 () (_ BitVec 64))
(declare-fun temp1082_56 () (_ BitVec 64))
(declare-fun temp1082_57 () (_ BitVec 64))
(declare-fun temp1082_58 () (_ BitVec 64))
(declare-fun temp1082_59 () (_ BitVec 64))
(declare-fun temp1082_60 () (_ BitVec 64))
(declare-fun temp1082_61 () (_ BitVec 64))
(declare-fun temp1082_63 () (_ BitVec 64))
(declare-fun temp1082_62 () (_ BitVec 64))
(declare-fun temp1082_64 () (_ BitVec 64))
(declare-fun temp1082_65 () (_ BitVec 64))
(declare-fun var921838 () (_ BitVec 64))
(declare-fun var921839 () (_ BitVec 64))
(declare-fun temp1082_66 () (_ BitVec 64))
(declare-fun temp1082_67 () (_ BitVec 64))
(declare-fun var1709354 () (_ BitVec 64))
(declare-fun var1841618 () (_ BitVec 64))
(declare-fun temp1082_68 () (_ BitVec 64))
(declare-fun var1904193 () (_ BitVec 64))
(declare-fun temp1082_70 () (_ BitVec 64))
(declare-fun temp1082_69 () (_ BitVec 64))
(declare-fun temp1082_72 () (_ BitVec 64))
(declare-fun temp1082_71 () (_ BitVec 64))
(assert (= temp1082_2 #x0000000000000000))
(assert (= temp1082_1 temp1082_2))
(assert (= temp1082_4 #x0000000000000001))
(assert (= temp1082_3 temp1082_4))
(assert (= temp1082_5 #xffffffffffffffff))
(assert (= var984667 temp1082_5))
(assert (= temp1082_6 #x0000000000000000))
(assert (= temp1082_7 temp1082_6))
(assert (= temp1082_8 (select ARGNAME_input_NAMEEND_DIMSIZE temp1082_7)))
(assert (= temp1082_9 #x0000000000000001))
(assert (= temp1082_10 temp1082_9))
(assert (= temp1082_11 (select ARGNAME_input_NAMEEND_DIMSIZE temp1082_10)))
(assert (= temp1082_12 #x0000000000000002))
(assert (= temp1082_13 temp1082_12))
(assert (= temp1082_14 (select ARGNAME_input_NAMEEND_DIMSIZE temp1082_13)))
(assert (= temp1082_15 #x0000000000000003))
(assert (= temp1082_16 temp1082_15))
(assert (= temp1082_17 (select ARGNAME_input_NAMEEND_DIMSIZE temp1082_16)))
(assert (= temp1082_18 #x0000000000000004))
(assert (= temp1082_19 temp1082_18))
(assert (= temp1082_20 (select ARGNAME_input_NAMEEND_DIMSIZE temp1082_19)))
(assert (= temp1082_21 #x0000000000000005))
(assert (= temp1082_22 temp1082_21))
(assert (= temp1082_23 (select ARGNAME_input_NAMEEND_DIMSIZE temp1082_22)))
(assert (= temp1082_25 #x0000000000000000))
(assert (= temp1082_24
   (ite (bvslt var984667 temp1082_25)
        (bvadd ARGNAME_input_NAMEEND_DIM var984667)
        var984667)))
(assert (= temp1082_26 temp1082_24))
(assert (= temp1082_27 (select ARGNAME_input_NAMEEND_DIMSIZE temp1082_26)))
(assert (= var984666 temp1082_27))
(assert (bvslt temp1082_24 ARGNAME_input_NAMEEND_DIM))
(assert (= temp1082_28 #xfffffffffffffffe))
(assert (= var984671 temp1082_28))
(assert (= temp1082_30 #x0000000000000000))
(assert (= temp1082_29
   (ite (bvslt var984671 temp1082_30)
        (bvadd ARGNAME_input_NAMEEND_DIM var984671)
        var984671)))
(assert (= temp1082_31 temp1082_29))
(assert (= temp1082_32 (select ARGNAME_input_NAMEEND_DIMSIZE temp1082_31)))
(assert (= var984670 temp1082_32))
(assert (bvslt temp1082_29 ARGNAME_input_NAMEEND_DIM))
(assert (= var984672
   (ite (= var984666 var984670) #x0000000000000001 #x0000000000000000)))
(assert (= temp1082_33 #x0000000000000001))
(assert (= var984672 temp1082_33))
(assert (= temp1082_34 #x0000000000000002))
(assert (= var1117880
   (ite (bvslt ARGNAME_B_NAMEEND_DIM temp1082_34)
        #x0000000000000001
        #x0000000000000000)))
(assert (= temp1082_35 #x0000000000000000))
(assert (= var1117880 temp1082_35))
(assert (= temp1082_36 #xfffffffffffffffe))
(assert (= temp1082_37 #xffffffffffffffff))
(assert (= var921834 (ite (= var921814 #x0000000000000001) temp1082_36 temp1082_37)))
(assert (= temp1082_38 #xfffffffffffffffe))
(assert (= temp1082_39 #xffffffffffffffff))
(assert (= var921835 (ite (= var921814 #x0000000000000001) temp1082_38 temp1082_39)))
(assert (= temp1082_41 #x0000000000000000))
(assert (= temp1082_40
   (ite (bvslt var921834 temp1082_41)
        (bvadd ARGNAME_input_NAMEEND_DIM var921834)
        var921834)))
(assert (= temp1082_42 temp1082_40))
(assert (= temp1082_43 (select ARGNAME_input_NAMEEND_DIMSIZE temp1082_42)))
(assert (= var921836 temp1082_43))
(assert (bvslt temp1082_40 ARGNAME_input_NAMEEND_DIM))
(assert (= temp1082_44 #x0000000000000000))
(assert (= temp1082_45 temp1082_44))
(assert (= temp1082_46 (select ARGNAME_B_NAMEEND_DIMSIZE temp1082_45)))
(assert (= temp1082_47 #x0000000000000001))
(assert (= temp1082_48 temp1082_47))
(assert (= temp1082_49 (select ARGNAME_B_NAMEEND_DIMSIZE temp1082_48)))
(assert (= temp1082_50 #x0000000000000002))
(assert (= temp1082_51 temp1082_50))
(assert (= temp1082_52 (select ARGNAME_B_NAMEEND_DIMSIZE temp1082_51)))
(assert (= temp1082_53 #x0000000000000003))
(assert (= temp1082_54 temp1082_53))
(assert (= temp1082_55 (select ARGNAME_B_NAMEEND_DIMSIZE temp1082_54)))
(assert (= temp1082_56 #x0000000000000004))
(assert (= temp1082_57 temp1082_56))
(assert (= temp1082_58 (select ARGNAME_B_NAMEEND_DIMSIZE temp1082_57)))
(assert (= temp1082_59 #x0000000000000005))
(assert (= temp1082_60 temp1082_59))
(assert (= temp1082_61 (select ARGNAME_B_NAMEEND_DIMSIZE temp1082_60)))
(assert (= temp1082_63 #x0000000000000000))
(assert (= temp1082_62
   (ite (bvslt var921835 temp1082_63)
        (bvadd ARGNAME_B_NAMEEND_DIM var921835)
        var921835)))
(assert (= temp1082_64 temp1082_62))
(assert (= temp1082_65 (select ARGNAME_B_NAMEEND_DIMSIZE temp1082_64)))
(assert (= var921838 temp1082_65))
(assert (bvslt temp1082_62 ARGNAME_B_NAMEEND_DIM))
(assert (= var921839
   (ite (= var921836 var921838) #x0000000000000001 #x0000000000000000)))
(assert (= temp1082_66 #x0000000000000001))
(assert (= var921839 temp1082_66))
(assert (= temp1082_67 #x0000000000000000))
(assert (= var1709354 temp1082_67))
(assert (= var1841618 var1709354))
(assert (= temp1082_68 #x0000000000000001))
(assert (= var1904193 temp1082_68))
(assert (= temp1082_70 #x0000000000000000))
(assert (= temp1082_69 temp1082_70))
(assert (= temp1082_72 #x0000000000000000))
(assert (= temp1082_71 temp1082_72))
(model-add temp1082_2 () (_ BitVec 64) #x0000000000000000)
(model-add temp1082_1 () (_ BitVec 64) #x0000000000000000)
(model-add temp1082_4 () (_ BitVec 64) #x0000000000000001)
(model-add temp1082_3 () (_ BitVec 64) #x0000000000000001)
(model-add temp1082_5 () (_ BitVec 64) #xffffffffffffffff)
(model-add var984667 () (_ BitVec 64) #xffffffffffffffff)
(model-add temp1082_6 () (_ BitVec 64) #x0000000000000000)
(model-add temp1082_7 () (_ BitVec 64) #x0000000000000000)
(model-add temp1082_8
           ()
           (_ BitVec 64)
           (select ARGNAME_input_NAMEEND_DIMSIZE #x0000000000000000))
(model-add temp1082_9 () (_ BitVec 64) #x0000000000000001)
(model-add temp1082_10 () (_ BitVec 64) #x0000000000000001)
(model-add temp1082_11
           ()
           (_ BitVec 64)
           (select ARGNAME_input_NAMEEND_DIMSIZE #x0000000000000001))
(model-add temp1082_12 () (_ BitVec 64) #x0000000000000002)
(model-add temp1082_13 () (_ BitVec 64) #x0000000000000002)
(model-add temp1082_14
           ()
           (_ BitVec 64)
           (select ARGNAME_input_NAMEEND_DIMSIZE #x0000000000000002))
(model-add temp1082_15 () (_ BitVec 64) #x0000000000000003)
(model-add temp1082_16 () (_ BitVec 64) #x0000000000000003)
(model-add temp1082_17
           ()
           (_ BitVec 64)
           (select ARGNAME_input_NAMEEND_DIMSIZE #x0000000000000003))
(model-add temp1082_18 () (_ BitVec 64) #x0000000000000004)
(model-add temp1082_19 () (_ BitVec 64) #x0000000000000004)
(model-add temp1082_20
           ()
           (_ BitVec 64)
           (select ARGNAME_input_NAMEEND_DIMSIZE #x0000000000000004))
(model-add temp1082_21 () (_ BitVec 64) #x0000000000000005)
(model-add temp1082_22 () (_ BitVec 64) #x0000000000000005)
(model-add temp1082_23
           ()
           (_ BitVec 64)
           (select ARGNAME_input_NAMEEND_DIMSIZE #x0000000000000005))
(model-add temp1082_25 () (_ BitVec 64) #x0000000000000000)
(model-add temp1082_24
           ()
           (_ BitVec 64)
           (bvadd #xffffffffffffffff ARGNAME_input_NAMEEND_DIM))
(model-add temp1082_26
           ()
           (_ BitVec 64)
           (bvadd #xffffffffffffffff ARGNAME_input_NAMEEND_DIM))
(model-add temp1082_27
           ()
           (_ BitVec 64)
           (select ARGNAME_input_NAMEEND_DIMSIZE
                   (bvadd #xffffffffffffffff ARGNAME_input_NAMEEND_DIM)))
(model-add var984666
           ()
           (_ BitVec 64)
           (select ARGNAME_input_NAMEEND_DIMSIZE
                   (bvadd #xffffffffffffffff ARGNAME_input_NAMEEND_DIM)))
(model-add temp1082_28 () (_ BitVec 64) #xfffffffffffffffe)
(model-add var984671 () (_ BitVec 64) #xfffffffffffffffe)
(model-add temp1082_30 () (_ BitVec 64) #x0000000000000000)
(model-add temp1082_29
           ()
           (_ BitVec 64)
           (bvadd #xfffffffffffffffe ARGNAME_input_NAMEEND_DIM))
(model-add temp1082_31
           ()
           (_ BitVec 64)
           (bvadd #xfffffffffffffffe ARGNAME_input_NAMEEND_DIM))
(model-add temp1082_32
           ()
           (_ BitVec 64)
           (select ARGNAME_input_NAMEEND_DIMSIZE
                   (bvadd #xfffffffffffffffe ARGNAME_input_NAMEEND_DIM)))
(model-add var984670
           ()
           (_ BitVec 64)
           (select ARGNAME_input_NAMEEND_DIMSIZE
                   (bvadd #xfffffffffffffffe ARGNAME_input_NAMEEND_DIM)))
(model-add temp1082_33 () (_ BitVec 64) #x0000000000000001)
(model-add var984672 () (_ BitVec 64) #x0000000000000001)





